(set-info :source |printed by MathSAT|)
(declare-fun |!{$(in_main#0)<N>}| () Int)
(declare-fun |!{$(in_main#0)<N>}.next| () Int)
(declare-fun |!{$(in_main#0)<i>}| () Int)
(declare-fun |!{$(in_main#0)<i>}.next| () Int)
(declare-fun |!{$(in_main#0)<k>}| () Int)
(declare-fun |!{$(in_main#0)<k>}.next| () Int)
(declare-fun |!{$(in_main#0)<array.1>}| () (Array Int Int))
(declare-fun |!{$(in_main#0)<array.1>}.next| () (Array Int Int))
(declare-fun |!{$(in_main#0)<$(in___VERIFIER_nondet_int#0)<h#<__VERIFIER_nondet_int.return>>>}| () Int)
(declare-fun !pc () Int)
(declare-fun !pc.next () Int)
(declare-fun |%{$(in_main#0)<k>}#1| () Int)
(declare-fun |%{$(in_main#0)<array.1>}#1| () (Array Int Int))
(define-fun .def_27 () Int (! !pc :next !pc.next))
(define-fun .def_30 () Bool (! (= .def_27 2) :init true))
(define-fun .def_123 () Bool (= .def_27 37))
(define-fun .def_96 () Bool (= !pc.next 51))
(define-fun .def_126 () Bool (and .def_96 .def_123))
(define-fun .def_119 () Bool (= |!{$(in_main#0)<k>}.next| 0))
(define-fun .def_10 () Int (! |!{$(in_main#0)<i>}| :next |!{$(in_main#0)<i>}.next|))
(define-fun .def_70 () Bool (= .def_10 |!{$(in_main#0)<i>}.next|))
(define-fun .def_8 () Int (! |!{$(in_main#0)<N>}| :next |!{$(in_main#0)<N>}.next|))
(define-fun .def_68 () Bool (= .def_8 |!{$(in_main#0)<N>}.next|))
(define-fun .def_77 () Bool (and .def_68 .def_70))
(define-fun .def_120 () Bool (and .def_77 .def_119))
(define-fun .def_14 () (Array Int Int) (! |!{$(in_main#0)<array.1>}| :next |!{$(in_main#0)<array.1>}.next|))
(define-fun .def_74 () Bool (= .def_14 |!{$(in_main#0)<array.1>}.next|))
(define-fun .def_121 () Bool (and .def_74 .def_120))
(define-fun .def_107 () Bool (<= .def_8 .def_10))
(define-fun .def_122 () Bool (and .def_107 .def_121))
(define-fun .def_127 () Bool (and .def_122 .def_126))
(define-fun .def_55 () Bool (= !pc.next 37))
(define-fun .def_124 () Bool (and .def_55 .def_123))
(define-fun .def_109 () (Array Int Int) (store .def_14 .def_10 0))
(define-fun .def_116 () Bool (= |!{$(in_main#0)<array.1>}.next| .def_109))
(define-fun .def_111 () Int (* (- 1) |!{$(in_main#0)<i>}.next|))
(define-fun .def_112 () Int (+ .def_10 .def_111))
(define-fun .def_113 () Bool (= .def_112 (- 1)))
(define-fun .def_114 () Bool (and .def_68 .def_113))
(define-fun .def_12 () Int (! |!{$(in_main#0)<k>}| :next |!{$(in_main#0)<k>}.next|))
(define-fun .def_72 () Bool (= .def_12 |!{$(in_main#0)<k>}.next|))
(define-fun .def_115 () Bool (and .def_72 .def_114))
(define-fun .def_117 () Bool (and .def_115 .def_116))
(define-fun .def_108 () Bool (not .def_107))
(define-fun .def_118 () Bool (and .def_108 .def_117))
(define-fun .def_125 () Bool (and .def_118 .def_124))
(define-fun .def_128 () Bool (or .def_125 .def_127))
(define-fun .def_100 () Bool (= !pc.next 0))
(define-fun .def_91 () Bool (= .def_27 51))
(define-fun .def_101 () Bool (and .def_91 .def_100))
(define-fun .def_58 () Bool (<= .def_8 .def_12))
(define-fun .def_86 () Bool (and .def_58 .def_68))
(define-fun .def_87 () Bool (and .def_70 .def_86))
(define-fun .def_88 () Bool (and .def_72 .def_87))
(define-fun .def_89 () Bool (and .def_74 .def_88))
(define-fun .def_102 () Bool (and .def_89 .def_101))
(define-fun .def_97 () Bool (and .def_91 .def_96))
(define-fun .def_79 () Int (* (- 1) |!{$(in_main#0)<k>}.next|))
(define-fun .def_80 () Int (+ .def_12 .def_79))
(define-fun .def_81 () Bool (= .def_80 (- 1)))
(define-fun .def_82 () Bool (and .def_77 .def_81))
(define-fun .def_83 () Bool (and .def_74 .def_82))
(define-fun .def_60 () Int (select .def_14 .def_12))
(define-fun .def_61 () Bool (= .def_60 0))
(define-fun .def_62 () Int (ite .def_61 1 0))
(define-fun .def_63 () Bool (= .def_62 0))
(define-fun .def_64 () Bool (not .def_63))
(define-fun .def_84 () Bool (and .def_64 .def_83))
(define-fun .def_59 () Bool (not .def_58))
(define-fun .def_85 () Bool (and .def_59 .def_84))
(define-fun .def_98 () Bool (and .def_85 .def_97))
(define-fun .def_93 () Bool (= !pc.next 71))
(define-fun .def_94 () Bool (and .def_91 .def_93))
(define-fun .def_69 () Bool (and .def_63 .def_68))
(define-fun .def_71 () Bool (and .def_69 .def_70))
(define-fun .def_73 () Bool (and .def_71 .def_72))
(define-fun .def_75 () Bool (and .def_73 .def_74))
(define-fun .def_76 () Bool (and .def_59 .def_75))
(define-fun .def_95 () Bool (and .def_76 .def_94))
(define-fun .def_99 () Bool (or .def_95 .def_98))
(define-fun .def_103 () Bool (or .def_99 .def_102))
(define-fun .def_56 () Bool (and .def_30 .def_55))
(define-fun .def_51 () Bool (= |!{$(in_main#0)<array.1>}.next| |%{$(in_main#0)<array.1>}#1|))
(define-fun .def_49 () Bool (= |!{$(in_main#0)<k>}.next| |%{$(in_main#0)<k>}#1|))
(define-fun .def_47 () Bool (= |!{$(in_main#0)<i>}.next| 0))
(define-fun .def_46 () Bool (= |!{$(in_main#0)<N>}.next| |!{$(in_main#0)<$(in___VERIFIER_nondet_int#0)<h#<__VERIFIER_nondet_int.return>>>}|))
(define-fun .def_48 () Bool (and .def_46 .def_47))
(define-fun .def_50 () Bool (and .def_48 .def_49))
(define-fun .def_52 () Bool (and .def_50 .def_51))
(define-fun .def_41 () Bool (<= |!{$(in_main#0)<$(in___VERIFIER_nondet_int#0)<h#<__VERIFIER_nondet_int.return>>>}| 0))
(define-fun .def_42 () Bool (not .def_41))
(define-fun .def_43 () Int (ite .def_42 1 0))
(define-fun .def_44 () Bool (= .def_43 0))
(define-fun .def_45 () Bool (not .def_44))
(define-fun .def_53 () Bool (and .def_45 .def_52))
(define-fun .def_57 () Bool (and .def_53 .def_56))
(define-fun .def_104 () Bool (or .def_57 .def_103))
(define-fun .def_129 () Bool (! (or .def_104 .def_128) :trans true))
(define-fun .def_105 () Bool (= .def_27 71))
(define-fun .def_130 () Bool (! (not .def_105) :invar-property 0 :invar-property-name ||))
(assert true)
